(set-info :Origin "This instance was generated by: BanditFuzz-- an RL fuzzer for SMT solvers" )
(set-info :Author "Joe Scott, Fed Mora, Vijay Ganesh" )
(set-info :Contact "Joe Scott, joseph.scott@uwaterloo.ca")
(set-logic QF_BV)
(declare-const bool_0 Bool)
(declare-const bool_1 Bool)
(declare-const bool_2 Bool)
(declare-const bool_3 Bool)
(declare-const bool_4 Bool)
(declare-const bv_0 (_ BitVec 32))
(declare-const bv_1 (_ BitVec 32))
(declare-const bv_2 (_ BitVec 32))
(declare-const bv_3 (_ BitVec 32))
(declare-const bv_4 (_ BitVec 32))
(assert (and (bvslt (bvnand #xd07e4464  #x21f155bd ) (bvadd #x658520d0  #x0c0fdd7c )) (bvsle (bvsmod #x2de41610  #xb67cfd89 ) (bvmul bv_2 bv_3))))
(assert (bvsge (bvsub (bvxor #x5fe92095  #x0a0b3e51 ) (bvnand bv_1 bv_3)) (bvsmod (bvnand bv_1 #x05aaaf73 ) (bvadd #x102a0f24  #x49c35624 ))))
(assert (bvsge (bvsrem (bvashr #xf4c1d8dd  bv_0) (bvsdiv #xa39e7691  #x2e19c2a7 )) (bvadd (bvsub bv_0 bv_1) (bvmul bv_4 bv_0))))
(assert (bvsge (bvor (bvxor bv_0 #x1d3f355c ) (bvshl bv_3 #x2cff581c )) (bvshl (bvsdiv bv_2 #xf5de94e9 ) (bvsmod bv_2 bv_4))))
(assert (bvsle (bvxnor (bvmul #x348ca830  bv_2) (bvsmod #x2a043dd9  bv_1)) (bvashr (bvlshr bv_0 bv_0) (bvand #xf2c9cdfd  #xadd5ebb5 ))))
(check-sat)
(exit)
